db/data/279221598916501533515270131061400314893.z3.out
-------------------
2500.118163902
